db/inputs/12882141972683188308823239461313421232.smt2
(set-logic QF_FP)
(declare-const x0 (_ FloatingPoint 11 53))
(declare-const x1 (_ FloatingPoint 11 53))
(declare-const x2 (_ FloatingPoint 11 53))
(declare-const x3 (_ FloatingPoint 11 53))
(declare-const x4 (_ FloatingPoint 11 53))
(declare-const x5 (_ FloatingPoint 11 53))
(declare-const x6 (_ FloatingPoint 11 53))
(declare-const x7 (_ FloatingPoint 11 53))
(declare-const x8 (_ FloatingPoint 11 53))
(declare-const x9 (_ FloatingPoint 11 53))
(declare-const x10 (_ FloatingPoint 11 53))
(declare-const x11 (_ FloatingPoint 11 53))
(declare-const x12 (_ FloatingPoint 11 53))
(declare-const x13 (_ FloatingPoint 11 53))
(declare-const x14 (_ FloatingPoint 11 53))
(declare-const x15 (_ FloatingPoint 11 53))
(declare-const x16 (_ FloatingPoint 11 53))
(assert (fp.lt (fp.div RNE x5 x11) (fp.neg x3)))
(assert (fp.lt (fp.add RNE x16 x4) (fp.sub RNE x14 x7)))
(assert (fp.lt (fp.add RNE x3 x9) (fp.add RNE x13 x8)))
(assert (fp.lt (fp.sub RNE x11 x8) (fp.sub RNE x2 x15)))
(assert (fp.lt (fp.sub RNE x16 x6) (fp.div RNE x11 x6)))
(assert (fp.geq (fp.add RNE x12 x11) (fp.mul RNE x5 x6)))
(assert (fp.geq (fp.add RNE x14 x6) (fp.div RNE x13 x16)))
(assert (fp.eq (fp.sub RNE x3 x0) (fp.sub RNE x14 x6)))
(assert (fp.gt (fp.sub RNE x10 x11) (fp.neg x12)))
(assert (fp.geq (fp.sub RNE x9 x8) (fp.add RNE x10 x8)))
(assert (fp.gt (fp.div RNE x9 x1) (fp.div RNE x2 x2)))
(assert (fp.lt (fp.mul RNE x6 x11) (fp.neg x7)))
(assert (fp.lt (fp.sub RNE x13 x0) (fp.div RNE x11 x0)))
(assert (fp.lt (fp.mul RNE x11 x5) (fp.div RNE x9 x7)))
(assert (fp.eq (fp.add RNE x10 x10) (fp.add RNE x13 x9)))
(assert (fp.geq (fp.neg x3) (fp.div RNE x12 x2)))
(assert (fp.geq (fp.div RNE x2 x0) (fp.add RNE x7 x1)))
(assert (fp.leq (fp.add RNE x0 x2) (fp.div RNE x7 x11)))
(assert (fp.leq (fp.mul RNE x9 x2) (fp.div RNE x10 x6)))
(check-sat)
