db/data/12882141972683188308823239461313421232.z3.out
-------------------
2500.088674667
